20	5
0	2	1	2
1	1	12
2	1	18
3	1	4
4	1	16
5	1	13
6	1	14
7	1	16
8	1	19
9	1	10
10	1	19
11	0
12	0
13	1	20
14	1	17
15	1	7
16	1	8
17	0
18	1	9
19	1	5
20	1	21
21	0
0	0	0	0	0	0	0
1	6	0	0	1	4	2
2	7	0	0	0	2	5
3	5	0	0	1	0	0
4	7	0	2	0	4	3
5	8	1	4	3	5	2
6	7	0	2	0	0	2
7	7	0	3	0	0	0
8	7	5	0	0	2	1
9	5	5	5	5	3	0
10	2	0	3	2	0	3
11	3	0	0	2	0	4
12	10	2	3	0	2	0
13	4	2	0	2	3	0
14	3	2	0	4	0	1
15	3	0	5	0	2	0
16	10	0	0	2	1	4
17	5	0	0	1	0	0
18	5	0	0	0	3	0
19	2	0	3	3	0	0
20	7	0	3	4	0	5
21	0	0	0	0	0	0
5	5	5	5	5
